(set-logic QF_FF)
(define-sort FF0 () (_ FiniteField 21888242871839275222246405745257275088548364400416034343698204186575808495617))
(declare-fun s_70 () FF0)
(declare-fun s_70_aux () FF0)
(declare-fun s_71 () FF0)
(declare-fun s_71_aux () FF0)
(declare-fun s_72 () FF0)
(declare-fun s_72_aux () FF0)
(declare-fun s_73 () FF0)
(declare-fun s_73_aux () FF0)
(declare-fun s_74 () FF0)
(declare-fun s_74_aux () FF0)
(declare-fun s_75 () FF0)
(declare-fun s_75_aux () FF0)
(declare-fun s_76 () FF0)
(declare-fun s_76_aux () FF0)
(declare-fun s_77 () FF0)
(declare-fun s_77_aux () FF0)
(declare-fun s_78 () FF0)
(declare-fun s_78_aux () FF0)
(declare-fun s_79 () FF0)
(declare-fun s_79_aux () FF0)
(declare-fun s_80 () FF0)
(declare-fun s_80_aux () FF0)
(declare-fun s_81 () FF0)
(declare-fun s_81_aux () FF0)
(declare-fun s_82 () FF0)
(declare-fun s_82_aux () FF0)
(declare-fun s_83 () FF0)
(declare-fun s_83_aux () FF0)
(declare-fun s_84 () FF0)
(declare-fun s_84_aux () FF0)
(declare-fun s_85 () FF0)
(declare-fun s_85_aux () FF0)
(declare-fun s_86 () FF0)
(declare-fun s_86_aux () FF0)
(declare-fun s_87 () FF0)
(declare-fun s_87_aux () FF0)
(declare-fun s_88 () FF0)
(declare-fun s_88_aux () FF0)
(declare-fun s_89 () FF0)
(declare-fun s_89_aux () FF0)
(declare-fun s_90 () FF0)
(declare-fun s_90_aux () FF0)
(declare-fun s_91 () FF0)
(declare-fun s_91_aux () FF0)
(declare-fun s_92 () FF0)
(declare-fun s_92_aux () FF0)
(declare-fun s_93 () FF0)
(declare-fun s_93_aux () FF0)
(declare-fun s_94 () FF0)
(declare-fun s_94_aux () FF0)
(declare-fun s_95 () FF0)
(declare-fun s_95_aux () FF0)
(declare-fun s_96 () FF0)
(declare-fun s_96_aux () FF0)
(declare-fun s_97 () FF0)
(declare-fun s_97_aux () FF0)
(declare-fun s_98 () FF0)
(declare-fun s_98_aux () FF0)
(declare-fun s_99 () FF0)
(declare-fun s_99_aux () FF0)
(declare-fun s_100 () FF0)
(declare-fun s_100_aux () FF0)
(declare-fun s_101 () FF0)
(declare-fun s_101_aux () FF0)
(declare-fun s_102 () FF0)
(assert (= (ff.add (ff.mul s_72 (as ff21888242871839275222246405745257275088548364400416034343698204186575808495613 FF0)) (ff.mul s_84 (as ff21888242871839275222246405745257275088548364400416034343698204186575808479233 FF0)) (ff.mul s_91 (as ff21888242871839275222246405745257275088548364400416034343698204186575806398465 FF0)) (ff.mul s_88 (as ff21888242871839275222246405745257275088548364400416034343698204186575808233473 FF0)) (ff.mul s_76 (as ff21888242871839275222246405745257275088548364400416034343698204186575808495553 FF0)) (ff.mul s_83 (as ff21888242871839275222246405745257275088548364400416034343698204186575808487425 FF0)) (ff.mul s_101 (as ff21888242871839275222246405745257275088548364400416034343698204186573661011969 FF0)) (ff.mul s_77 (as ff21888242871839275222246405745257275088548364400416034343698204186575808495489 FF0)) (ff.mul s_78 (as ff21888242871839275222246405745257275088548364400416034343698204186575808495361 FF0)) (ff.mul s_87 (as ff21888242871839275222246405745257275088548364400416034343698204186575808364545 FF0)) (ff.mul s_99 (as ff21888242871839275222246405745257275088548364400416034343698204186575271624705 FF0)) (ff.mul s_94 (as ff21888242871839275222246405745257275088548364400416034343698204186575791718401 FF0)) (ff.mul s_80 (as ff21888242871839275222246405745257275088548364400416034343698204186575808494593 FF0)) (ff.mul s_89 (as ff21888242871839275222246405745257275088548364400416034343698204186575807971329 FF0)) (ff.mul s_97 (as ff21888242871839275222246405745257275088548364400416034343698204186575674277889 FF0)) (ff.mul s_90 (as ff21888242871839275222246405745257275088548364400416034343698204186575807447041 FF0)) (ff.mul s_98 (as ff21888242871839275222246405745257275088548364400416034343698204186575540060161 FF0)) (ff.mul s_75 (as ff21888242871839275222246405745257275088548364400416034343698204186575808495585 FF0)) s_102 (ff.mul s_100 (as ff21888242871839275222246405745257275088548364400416034343698204186574734753793 FF0)) (ff.mul s_96 (as ff21888242871839275222246405745257275088548364400416034343698204186575741386753 FF0)) (ff.mul s_70 (as ff21888242871839275222246405745257275088548364400416034343698204186575808495616 FF0)) (ff.mul s_81 (as ff21888242871839275222246405745257275088548364400416034343698204186575808493569 FF0)) (ff.mul s_92 (as ff21888242871839275222246405745257275088548364400416034343698204186575804301313 FF0)) (ff.mul s_73 (as ff21888242871839275222246405745257275088548364400416034343698204186575808495609 FF0)) (ff.mul s_74 (as ff21888242871839275222246405745257275088548364400416034343698204186575808495601 FF0)) (ff.mul s_82 (as ff21888242871839275222246405745257275088548364400416034343698204186575808491521 FF0)) (ff.mul s_85 (as ff21888242871839275222246405745257275088548364400416034343698204186575808462849 FF0)) (ff.mul s_95 (as ff21888242871839275222246405745257275088548364400416034343698204186575774941185 FF0)) (ff.mul s_93 (as ff21888242871839275222246405745257275088548364400416034343698204186575800107009 FF0)) (ff.mul s_86 (as ff21888242871839275222246405745257275088548364400416034343698204186575808430081 FF0)) (ff.mul s_79 (as ff21888242871839275222246405745257275088548364400416034343698204186575808495105 FF0)) (ff.mul s_71 (as ff21888242871839275222246405745257275088548364400416034343698204186575808495615 FF0)) ) (as ff0 FF0)))
(assert (= (ff.add (ff.mul s_72_aux (as ff21888242871839275222246405745257275088548364400416034343698204186575808495613 FF0)) (ff.mul s_84_aux (as ff21888242871839275222246405745257275088548364400416034343698204186575808479233 FF0)) (ff.mul s_91_aux (as ff21888242871839275222246405745257275088548364400416034343698204186575806398465 FF0)) (ff.mul s_88_aux (as ff21888242871839275222246405745257275088548364400416034343698204186575808233473 FF0)) (ff.mul s_76_aux (as ff21888242871839275222246405745257275088548364400416034343698204186575808495553 FF0)) (ff.mul s_83_aux (as ff21888242871839275222246405745257275088548364400416034343698204186575808487425 FF0)) (ff.mul s_101_aux (as ff21888242871839275222246405745257275088548364400416034343698204186573661011969 FF0)) (ff.mul s_77_aux (as ff21888242871839275222246405745257275088548364400416034343698204186575808495489 FF0)) (ff.mul s_78_aux (as ff21888242871839275222246405745257275088548364400416034343698204186575808495361 FF0)) (ff.mul s_87_aux (as ff21888242871839275222246405745257275088548364400416034343698204186575808364545 FF0)) (ff.mul s_99_aux (as ff21888242871839275222246405745257275088548364400416034343698204186575271624705 FF0)) (ff.mul s_94_aux (as ff21888242871839275222246405745257275088548364400416034343698204186575791718401 FF0)) (ff.mul s_80_aux (as ff21888242871839275222246405745257275088548364400416034343698204186575808494593 FF0)) (ff.mul s_89_aux (as ff21888242871839275222246405745257275088548364400416034343698204186575807971329 FF0)) (ff.mul s_97_aux (as ff21888242871839275222246405745257275088548364400416034343698204186575674277889 FF0)) (ff.mul s_90_aux (as ff21888242871839275222246405745257275088548364400416034343698204186575807447041 FF0)) (ff.mul s_98_aux (as ff21888242871839275222246405745257275088548364400416034343698204186575540060161 FF0)) (ff.mul s_75_aux (as ff21888242871839275222246405745257275088548364400416034343698204186575808495585 FF0)) s_102 (ff.mul s_100_aux (as ff21888242871839275222246405745257275088548364400416034343698204186574734753793 FF0)) (ff.mul s_96_aux (as ff21888242871839275222246405745257275088548364400416034343698204186575741386753 FF0)) (ff.mul s_70_aux (as ff21888242871839275222246405745257275088548364400416034343698204186575808495616 FF0)) (ff.mul s_81_aux (as ff21888242871839275222246405745257275088548364400416034343698204186575808493569 FF0)) (ff.mul s_92_aux (as ff21888242871839275222246405745257275088548364400416034343698204186575804301313 FF0)) (ff.mul s_73_aux (as ff21888242871839275222246405745257275088548364400416034343698204186575808495609 FF0)) (ff.mul s_74_aux (as ff21888242871839275222246405745257275088548364400416034343698204186575808495601 FF0)) (ff.mul s_82_aux (as ff21888242871839275222246405745257275088548364400416034343698204186575808491521 FF0)) (ff.mul s_85_aux (as ff21888242871839275222246405745257275088548364400416034343698204186575808462849 FF0)) (ff.mul s_95_aux (as ff21888242871839275222246405745257275088548364400416034343698204186575774941185 FF0)) (ff.mul s_93_aux (as ff21888242871839275222246405745257275088548364400416034343698204186575800107009 FF0)) (ff.mul s_86_aux (as ff21888242871839275222246405745257275088548364400416034343698204186575808430081 FF0)) (ff.mul s_79_aux (as ff21888242871839275222246405745257275088548364400416034343698204186575808495105 FF0)) (ff.mul s_71_aux (as ff21888242871839275222246405745257275088548364400416034343698204186575808495615 FF0)) ) (as ff0 FF0)))
(assert (=> (and (= s_79 s_79_aux) (= s_70 s_70_aux) (= s_86 s_86_aux) (= s_71 s_71_aux) (= s_93 s_93_aux) (= s_78 s_78_aux) (= s_80 s_80_aux) (= s_81 s_81_aux) (= s_77 s_77_aux) (= s_100 s_100_aux) (= s_96 s_96_aux) (= s_84 s_84_aux) (= s_91 s_91_aux) (= s_72 s_72_aux) (= s_97 s_97_aux) (= s_87 s_87_aux) (= s_95 s_95_aux) (= s_92 s_92_aux) (= s_88 s_88_aux) (= s_99 s_99_aux) (= s_94 s_94_aux) (= s_98 s_98_aux) (= s_74 s_74_aux) (= s_73 s_73_aux) (= s_89 s_89_aux) (= s_75 s_75_aux) (= s_101 s_101_aux) (= s_76 s_76_aux) (= s_90 s_90_aux) (= s_82 s_82_aux) (= s_85 s_85_aux) (= s_102 s_102) ) (= s_83 s_83_aux)))
(assert (=> (and (= s_79 s_79_aux) (= s_70 s_70_aux) (= s_86 s_86_aux) (= s_71 s_71_aux) (= s_93 s_93_aux) (= s_78 s_78_aux) (= s_81 s_81_aux) (= s_77 s_77_aux) (= s_100 s_100_aux) (= s_96 s_96_aux) (= s_84 s_84_aux) (= s_91 s_91_aux) (= s_72 s_72_aux) (= s_97 s_97_aux) (= s_87 s_87_aux) (= s_95 s_95_aux) (= s_83 s_83_aux) (= s_92 s_92_aux) (= s_88 s_88_aux) (= s_99 s_99_aux) (= s_94 s_94_aux) (= s_98 s_98_aux) (= s_74 s_74_aux) (= s_73 s_73_aux) (= s_89 s_89_aux) (= s_75 s_75_aux) (= s_101 s_101_aux) (= s_76 s_76_aux) (= s_90 s_90_aux) (= s_82 s_82_aux) (= s_85 s_85_aux) (= s_102 s_102) ) (= s_80 s_80_aux)))
(assert (=> (and (= s_79 s_79_aux) (= s_70 s_70_aux) (= s_86 s_86_aux) (= s_71 s_71_aux) (= s_93 s_93_aux) (= s_78 s_78_aux) (= s_80 s_80_aux) (= s_81 s_81_aux) (= s_77 s_77_aux) (= s_100 s_100_aux) (= s_96 s_96_aux) (= s_84 s_84_aux) (= s_91 s_91_aux) (= s_72 s_72_aux) (= s_97 s_97_aux) (= s_87 s_87_aux) (= s_95 s_95_aux) (= s_83 s_83_aux) (= s_92 s_92_aux) (= s_88 s_88_aux) (= s_99 s_99_aux) (= s_94 s_94_aux) (= s_98 s_98_aux) (= s_74 s_74_aux) (= s_73 s_73_aux) (= s_89 s_89_aux) (= s_75 s_75_aux) (= s_101 s_101_aux) (= s_90 s_90_aux) (= s_82 s_82_aux) (= s_85 s_85_aux) (= s_102 s_102) ) (= s_76 s_76_aux)))
(assert (=> (and (= s_79 s_79_aux) (= s_70 s_70_aux) (= s_86 s_86_aux) (= s_71 s_71_aux) (= s_93 s_93_aux) (= s_78 s_78_aux) (= s_80 s_80_aux) (= s_81 s_81_aux) (= s_77 s_77_aux) (= s_100 s_100_aux) (= s_96 s_96_aux) (= s_91 s_91_aux) (= s_72 s_72_aux) (= s_97 s_97_aux) (= s_87 s_87_aux) (= s_95 s_95_aux) (= s_83 s_83_aux) (= s_92 s_92_aux) (= s_88 s_88_aux) (= s_99 s_99_aux) (= s_94 s_94_aux) (= s_98 s_98_aux) (= s_74 s_74_aux) (= s_73 s_73_aux) (= s_89 s_89_aux) (= s_75 s_75_aux) (= s_101 s_101_aux) (= s_76 s_76_aux) (= s_90 s_90_aux) (= s_82 s_82_aux) (= s_85 s_85_aux) (= s_102 s_102) ) (= s_84 s_84_aux)))
(assert (=> (and (= s_79 s_79_aux) (= s_70 s_70_aux) (= s_86 s_86_aux) (= s_71 s_71_aux) (= s_93 s_93_aux) (= s_78 s_78_aux) (= s_80 s_80_aux) (= s_81 s_81_aux) (= s_77 s_77_aux) (= s_100 s_100_aux) (= s_96 s_96_aux) (= s_84 s_84_aux) (= s_91 s_91_aux) (= s_72 s_72_aux) (= s_97 s_97_aux) (= s_87 s_87_aux) (= s_95 s_95_aux) (= s_83 s_83_aux) (= s_92 s_92_aux) (= s_88 s_88_aux) (= s_99 s_99_aux) (= s_94 s_94_aux) (= s_74 s_74_aux) (= s_73 s_73_aux) (= s_89 s_89_aux) (= s_75 s_75_aux) (= s_101 s_101_aux) (= s_76 s_76_aux) (= s_90 s_90_aux) (= s_82 s_82_aux) (= s_85 s_85_aux) (= s_102 s_102) ) (= s_98 s_98_aux)))
(assert (=> (and (= s_79 s_79_aux) (= s_70 s_70_aux) (= s_86 s_86_aux) (= s_71 s_71_aux) (= s_93 s_93_aux) (= s_78 s_78_aux) (= s_80 s_80_aux) (= s_81 s_81_aux) (= s_77 s_77_aux) (= s_100 s_100_aux) (= s_96 s_96_aux) (= s_84 s_84_aux) (= s_91 s_91_aux) (= s_72 s_72_aux) (= s_97 s_97_aux) (= s_87 s_87_aux) (= s_95 s_95_aux) (= s_83 s_83_aux) (= s_92 s_92_aux) (= s_88 s_88_aux) (= s_94 s_94_aux) (= s_98 s_98_aux) (= s_74 s_74_aux) (= s_73 s_73_aux) (= s_89 s_89_aux) (= s_75 s_75_aux) (= s_101 s_101_aux) (= s_76 s_76_aux) (= s_90 s_90_aux) (= s_82 s_82_aux) (= s_85 s_85_aux) (= s_102 s_102) ) (= s_99 s_99_aux)))
(assert (=> (and (= s_79 s_79_aux) (= s_70 s_70_aux) (= s_86 s_86_aux) (= s_71 s_71_aux) (= s_93 s_93_aux) (= s_78 s_78_aux) (= s_80 s_80_aux) (= s_81 s_81_aux) (= s_77 s_77_aux) (= s_100 s_100_aux) (= s_96 s_96_aux) (= s_84 s_84_aux) (= s_91 s_91_aux) (= s_72 s_72_aux) (= s_97 s_97_aux) (= s_87 s_87_aux) (= s_95 s_95_aux) (= s_83 s_83_aux) (= s_92 s_92_aux) (= s_88 s_88_aux) (= s_99 s_99_aux) (= s_94 s_94_aux) (= s_98 s_98_aux) (= s_74 s_74_aux) (= s_73 s_73_aux) (= s_89 s_89_aux) (= s_101 s_101_aux) (= s_76 s_76_aux) (= s_90 s_90_aux) (= s_82 s_82_aux) (= s_85 s_85_aux) (= s_102 s_102) ) (= s_75 s_75_aux)))
(assert (=> (and (= s_79 s_79_aux) (= s_70 s_70_aux) (= s_86 s_86_aux) (= s_71 s_71_aux) (= s_93 s_93_aux) (= s_78 s_78_aux) (= s_80 s_80_aux) (= s_81 s_81_aux) (= s_77 s_77_aux) (= s_100 s_100_aux) (= s_96 s_96_aux) (= s_84 s_84_aux) (= s_91 s_91_aux) (= s_72 s_72_aux) (= s_97 s_97_aux) (= s_87 s_87_aux) (= s_95 s_95_aux) (= s_83 s_83_aux) (= s_92 s_92_aux) (= s_88 s_88_aux) (= s_99 s_99_aux) (= s_94 s_94_aux) (= s_98 s_98_aux) (= s_74 s_74_aux) (= s_73 s_73_aux) (= s_89 s_89_aux) (= s_75 s_75_aux) (= s_101 s_101_aux) (= s_76 s_76_aux) (= s_90 s_90_aux) (= s_82 s_82_aux) (= s_102 s_102) ) (= s_85 s_85_aux)))
(assert (=> (and (= s_70 s_70_aux) (= s_86 s_86_aux) (= s_71 s_71_aux) (= s_93 s_93_aux) (= s_78 s_78_aux) (= s_80 s_80_aux) (= s_81 s_81_aux) (= s_77 s_77_aux) (= s_100 s_100_aux) (= s_96 s_96_aux) (= s_84 s_84_aux) (= s_91 s_91_aux) (= s_72 s_72_aux) (= s_97 s_97_aux) (= s_87 s_87_aux) (= s_95 s_95_aux) (= s_83 s_83_aux) (= s_92 s_92_aux) (= s_88 s_88_aux) (= s_99 s_99_aux) (= s_94 s_94_aux) (= s_98 s_98_aux) (= s_74 s_74_aux) (= s_73 s_73_aux) (= s_89 s_89_aux) (= s_75 s_75_aux) (= s_101 s_101_aux) (= s_76 s_76_aux) (= s_90 s_90_aux) (= s_82 s_82_aux) (= s_85 s_85_aux) (= s_102 s_102) ) (= s_79 s_79_aux)))
(assert (=> (and (= s_79 s_79_aux) (= s_70 s_70_aux) (= s_86 s_86_aux) (= s_71 s_71_aux) (= s_93 s_93_aux) (= s_78 s_78_aux) (= s_80 s_80_aux) (= s_77 s_77_aux) (= s_100 s_100_aux) (= s_96 s_96_aux) (= s_84 s_84_aux) (= s_91 s_91_aux) (= s_72 s_72_aux) (= s_97 s_97_aux) (= s_87 s_87_aux) (= s_95 s_95_aux) (= s_83 s_83_aux) (= s_92 s_92_aux) (= s_88 s_88_aux) (= s_99 s_99_aux) (= s_94 s_94_aux) (= s_98 s_98_aux) (= s_74 s_74_aux) (= s_73 s_73_aux) (= s_89 s_89_aux) (= s_75 s_75_aux) (= s_101 s_101_aux) (= s_76 s_76_aux) (= s_90 s_90_aux) (= s_82 s_82_aux) (= s_85 s_85_aux) (= s_102 s_102) ) (= s_81 s_81_aux)))
(assert (=> (and (= s_79 s_79_aux) (= s_70 s_70_aux) (= s_86 s_86_aux) (= s_71 s_71_aux) (= s_78 s_78_aux) (= s_80 s_80_aux) (= s_81 s_81_aux) (= s_77 s_77_aux) (= s_100 s_100_aux) (= s_96 s_96_aux) (= s_84 s_84_aux) (= s_91 s_91_aux) (= s_72 s_72_aux) (= s_97 s_97_aux) (= s_87 s_87_aux) (= s_95 s_95_aux) (= s_83 s_83_aux) (= s_92 s_92_aux) (= s_88 s_88_aux) (= s_99 s_99_aux) (= s_94 s_94_aux) (= s_98 s_98_aux) (= s_74 s_74_aux) (= s_73 s_73_aux) (= s_89 s_89_aux) (= s_75 s_75_aux) (= s_101 s_101_aux) (= s_76 s_76_aux) (= s_90 s_90_aux) (= s_82 s_82_aux) (= s_85 s_85_aux) (= s_102 s_102) ) (= s_93 s_93_aux)))
(assert (=> (and (= s_79 s_79_aux) (= s_70 s_70_aux) (= s_86 s_86_aux) (= s_71 s_71_aux) (= s_93 s_93_aux) (= s_78 s_78_aux) (= s_80 s_80_aux) (= s_81 s_81_aux) (= s_77 s_77_aux) (= s_100 s_100_aux) (= s_96 s_96_aux) (= s_84 s_84_aux) (= s_91 s_91_aux) (= s_72 s_72_aux) (= s_97 s_97_aux) (= s_87 s_87_aux) (= s_95 s_95_aux) (= s_83 s_83_aux) (= s_92 s_92_aux) (= s_88 s_88_aux) (= s_99 s_99_aux) (= s_94 s_94_aux) (= s_98 s_98_aux) (= s_74 s_74_aux) (= s_89 s_89_aux) (= s_75 s_75_aux) (= s_101 s_101_aux) (= s_76 s_76_aux) (= s_90 s_90_aux) (= s_82 s_82_aux) (= s_85 s_85_aux) (= s_102 s_102) ) (= s_73 s_73_aux)))
(assert (=> (and (= s_79 s_79_aux) (= s_70 s_70_aux) (= s_86 s_86_aux) (= s_71 s_71_aux) (= s_93 s_93_aux) (= s_78 s_78_aux) (= s_80 s_80_aux) (= s_81 s_81_aux) (= s_77 s_77_aux) (= s_100 s_100_aux) (= s_96 s_96_aux) (= s_84 s_84_aux) (= s_91 s_91_aux) (= s_72 s_72_aux) (= s_97 s_97_aux) (= s_87 s_87_aux) (= s_95 s_95_aux) (= s_83 s_83_aux) (= s_92 s_92_aux) (= s_88 s_88_aux) (= s_99 s_99_aux) (= s_94 s_94_aux) (= s_98 s_98_aux) (= s_74 s_74_aux) (= s_73 s_73_aux) (= s_89 s_89_aux) (= s_75 s_75_aux) (= s_101 s_101_aux) (= s_76 s_76_aux) (= s_90 s_90_aux) (= s_82 s_82_aux) (= s_85 s_85_aux) ) (= s_102 s_102)))
(assert (=> (and (= s_79 s_79_aux) (= s_70 s_70_aux) (= s_86 s_86_aux) (= s_71 s_71_aux) (= s_93 s_93_aux) (= s_78 s_78_aux) (= s_80 s_80_aux) (= s_81 s_81_aux) (= s_77 s_77_aux) (= s_100 s_100_aux) (= s_96 s_96_aux) (= s_84 s_84_aux) (= s_91 s_91_aux) (= s_72 s_72_aux) (= s_97 s_97_aux) (= s_87 s_87_aux) (= s_95 s_95_aux) (= s_83 s_83_aux) (= s_92 s_92_aux) (= s_88 s_88_aux) (= s_99 s_99_aux) (= s_94 s_94_aux) (= s_98 s_98_aux) (= s_74 s_74_aux) (= s_73 s_73_aux) (= s_89 s_89_aux) (= s_75 s_75_aux) (= s_101 s_101_aux) (= s_76 s_76_aux) (= s_90 s_90_aux) (= s_85 s_85_aux) (= s_102 s_102) ) (= s_82 s_82_aux)))
(assert (=> (and (= s_79 s_79_aux) (= s_70 s_70_aux) (= s_86 s_86_aux) (= s_71 s_71_aux) (= s_93 s_93_aux) (= s_78 s_78_aux) (= s_80 s_80_aux) (= s_81 s_81_aux) (= s_77 s_77_aux) (= s_100 s_100_aux) (= s_96 s_96_aux) (= s_84 s_84_aux) (= s_91 s_91_aux) (= s_72 s_72_aux) (= s_97 s_97_aux) (= s_95 s_95_aux) (= s_83 s_83_aux) (= s_92 s_92_aux) (= s_88 s_88_aux) (= s_99 s_99_aux) (= s_94 s_94_aux) (= s_98 s_98_aux) (= s_74 s_74_aux) (= s_73 s_73_aux) (= s_89 s_89_aux) (= s_75 s_75_aux) (= s_101 s_101_aux) (= s_76 s_76_aux) (= s_90 s_90_aux) (= s_82 s_82_aux) (= s_85 s_85_aux) (= s_102 s_102) ) (= s_87 s_87_aux)))
(assert (=> (and (= s_79 s_79_aux) (= s_70 s_70_aux) (= s_86 s_86_aux) (= s_71 s_71_aux) (= s_93 s_93_aux) (= s_78 s_78_aux) (= s_80 s_80_aux) (= s_81 s_81_aux) (= s_77 s_77_aux) (= s_100 s_100_aux) (= s_96 s_96_aux) (= s_84 s_84_aux) (= s_72 s_72_aux) (= s_97 s_97_aux) (= s_87 s_87_aux) (= s_95 s_95_aux) (= s_83 s_83_aux) (= s_92 s_92_aux) (= s_88 s_88_aux) (= s_99 s_99_aux) (= s_94 s_94_aux) (= s_98 s_98_aux) (= s_74 s_74_aux) (= s_73 s_73_aux) (= s_89 s_89_aux) (= s_75 s_75_aux) (= s_101 s_101_aux) (= s_76 s_76_aux) (= s_90 s_90_aux) (= s_82 s_82_aux) (= s_85 s_85_aux) (= s_102 s_102) ) (= s_91 s_91_aux)))
(assert (=> (and (= s_79 s_79_aux) (= s_70 s_70_aux) (= s_86 s_86_aux) (= s_71 s_71_aux) (= s_93 s_93_aux) (= s_78 s_78_aux) (= s_80 s_80_aux) (= s_81 s_81_aux) (= s_77 s_77_aux) (= s_100 s_100_aux) (= s_96 s_96_aux) (= s_84 s_84_aux) (= s_91 s_91_aux) (= s_72 s_72_aux) (= s_97 s_97_aux) (= s_87 s_87_aux) (= s_95 s_95_aux) (= s_83 s_83_aux) (= s_88 s_88_aux) (= s_99 s_99_aux) (= s_94 s_94_aux) (= s_98 s_98_aux) (= s_74 s_74_aux) (= s_73 s_73_aux) (= s_89 s_89_aux) (= s_75 s_75_aux) (= s_101 s_101_aux) (= s_76 s_76_aux) (= s_90 s_90_aux) (= s_82 s_82_aux) (= s_85 s_85_aux) (= s_102 s_102) ) (= s_92 s_92_aux)))
(assert (=> (and (= s_79 s_79_aux) (= s_70 s_70_aux) (= s_86 s_86_aux) (= s_71 s_71_aux) (= s_93 s_93_aux) (= s_78 s_78_aux) (= s_80 s_80_aux) (= s_81 s_81_aux) (= s_77 s_77_aux) (= s_100 s_100_aux) (= s_96 s_96_aux) (= s_84 s_84_aux) (= s_91 s_91_aux) (= s_72 s_72_aux) (= s_97 s_97_aux) (= s_87 s_87_aux) (= s_95 s_95_aux) (= s_83 s_83_aux) (= s_92 s_92_aux) (= s_88 s_88_aux) (= s_99 s_99_aux) (= s_94 s_94_aux) (= s_98 s_98_aux) (= s_74 s_74_aux) (= s_73 s_73_aux) (= s_75 s_75_aux) (= s_101 s_101_aux) (= s_76 s_76_aux) (= s_90 s_90_aux) (= s_82 s_82_aux) (= s_85 s_85_aux) (= s_102 s_102) ) (= s_89 s_89_aux)))
(assert (=> (and (= s_79 s_79_aux) (= s_70 s_70_aux) (= s_86 s_86_aux) (= s_71 s_71_aux) (= s_93 s_93_aux) (= s_78 s_78_aux) (= s_80 s_80_aux) (= s_81 s_81_aux) (= s_77 s_77_aux) (= s_100 s_100_aux) (= s_96 s_96_aux) (= s_84 s_84_aux) (= s_91 s_91_aux) (= s_97 s_97_aux) (= s_87 s_87_aux) (= s_95 s_95_aux) (= s_83 s_83_aux) (= s_92 s_92_aux) (= s_88 s_88_aux) (= s_99 s_99_aux) (= s_94 s_94_aux) (= s_98 s_98_aux) (= s_74 s_74_aux) (= s_73 s_73_aux) (= s_89 s_89_aux) (= s_75 s_75_aux) (= s_101 s_101_aux) (= s_76 s_76_aux) (= s_90 s_90_aux) (= s_82 s_82_aux) (= s_85 s_85_aux) (= s_102 s_102) ) (= s_72 s_72_aux)))
(assert (=> (and (= s_79 s_79_aux) (= s_70 s_70_aux) (= s_86 s_86_aux) (= s_93 s_93_aux) (= s_78 s_78_aux) (= s_80 s_80_aux) (= s_81 s_81_aux) (= s_77 s_77_aux) (= s_100 s_100_aux) (= s_96 s_96_aux) (= s_84 s_84_aux) (= s_91 s_91_aux) (= s_72 s_72_aux) (= s_97 s_97_aux) (= s_87 s_87_aux) (= s_95 s_95_aux) (= s_83 s_83_aux) (= s_92 s_92_aux) (= s_88 s_88_aux) (= s_99 s_99_aux) (= s_94 s_94_aux) (= s_98 s_98_aux) (= s_74 s_74_aux) (= s_73 s_73_aux) (= s_89 s_89_aux) (= s_75 s_75_aux) (= s_101 s_101_aux) (= s_76 s_76_aux) (= s_90 s_90_aux) (= s_82 s_82_aux) (= s_85 s_85_aux) (= s_102 s_102) ) (= s_71 s_71_aux)))
(assert (=> (and (= s_79 s_79_aux) (= s_70 s_70_aux) (= s_86 s_86_aux) (= s_71 s_71_aux) (= s_93 s_93_aux) (= s_78 s_78_aux) (= s_80 s_80_aux) (= s_81 s_81_aux) (= s_77 s_77_aux) (= s_100 s_100_aux) (= s_96 s_96_aux) (= s_84 s_84_aux) (= s_91 s_91_aux) (= s_72 s_72_aux) (= s_97 s_97_aux) (= s_87 s_87_aux) (= s_95 s_95_aux) (= s_83 s_83_aux) (= s_92 s_92_aux) (= s_88 s_88_aux) (= s_99 s_99_aux) (= s_98 s_98_aux) (= s_74 s_74_aux) (= s_73 s_73_aux) (= s_89 s_89_aux) (= s_75 s_75_aux) (= s_101 s_101_aux) (= s_76 s_76_aux) (= s_90 s_90_aux) (= s_82 s_82_aux) (= s_85 s_85_aux) (= s_102 s_102) ) (= s_94 s_94_aux)))
(assert (=> (and (= s_79 s_79_aux) (= s_70 s_70_aux) (= s_86 s_86_aux) (= s_71 s_71_aux) (= s_93 s_93_aux) (= s_78 s_78_aux) (= s_80 s_80_aux) (= s_81 s_81_aux) (= s_77 s_77_aux) (= s_100 s_100_aux) (= s_96 s_96_aux) (= s_84 s_84_aux) (= s_91 s_91_aux) (= s_72 s_72_aux) (= s_87 s_87_aux) (= s_95 s_95_aux) (= s_83 s_83_aux) (= s_92 s_92_aux) (= s_88 s_88_aux) (= s_99 s_99_aux) (= s_94 s_94_aux) (= s_98 s_98_aux) (= s_74 s_74_aux) (= s_73 s_73_aux) (= s_89 s_89_aux) (= s_75 s_75_aux) (= s_101 s_101_aux) (= s_76 s_76_aux) (= s_90 s_90_aux) (= s_82 s_82_aux) (= s_85 s_85_aux) (= s_102 s_102) ) (= s_97 s_97_aux)))
(assert (=> (and (= s_79 s_79_aux) (= s_70 s_70_aux) (= s_86 s_86_aux) (= s_71 s_71_aux) (= s_93 s_93_aux) (= s_78 s_78_aux) (= s_80 s_80_aux) (= s_81 s_81_aux) (= s_100 s_100_aux) (= s_96 s_96_aux) (= s_84 s_84_aux) (= s_91 s_91_aux) (= s_72 s_72_aux) (= s_97 s_97_aux) (= s_87 s_87_aux) (= s_95 s_95_aux) (= s_83 s_83_aux) (= s_92 s_92_aux) (= s_88 s_88_aux) (= s_99 s_99_aux) (= s_94 s_94_aux) (= s_98 s_98_aux) (= s_74 s_74_aux) (= s_73 s_73_aux) (= s_89 s_89_aux) (= s_75 s_75_aux) (= s_101 s_101_aux) (= s_76 s_76_aux) (= s_90 s_90_aux) (= s_82 s_82_aux) (= s_85 s_85_aux) (= s_102 s_102) ) (= s_77 s_77_aux)))
(assert (=> (and (= s_79 s_79_aux) (= s_70 s_70_aux) (= s_86 s_86_aux) (= s_71 s_71_aux) (= s_93 s_93_aux) (= s_78 s_78_aux) (= s_80 s_80_aux) (= s_81 s_81_aux) (= s_77 s_77_aux) (= s_96 s_96_aux) (= s_84 s_84_aux) (= s_91 s_91_aux) (= s_72 s_72_aux) (= s_97 s_97_aux) (= s_87 s_87_aux) (= s_95 s_95_aux) (= s_83 s_83_aux) (= s_92 s_92_aux) (= s_88 s_88_aux) (= s_99 s_99_aux) (= s_94 s_94_aux) (= s_98 s_98_aux) (= s_74 s_74_aux) (= s_73 s_73_aux) (= s_89 s_89_aux) (= s_75 s_75_aux) (= s_101 s_101_aux) (= s_76 s_76_aux) (= s_90 s_90_aux) (= s_82 s_82_aux) (= s_85 s_85_aux) (= s_102 s_102) ) (= s_100 s_100_aux)))
(assert (=> (and (= s_79 s_79_aux) (= s_70 s_70_aux) (= s_86 s_86_aux) (= s_71 s_71_aux) (= s_93 s_93_aux) (= s_78 s_78_aux) (= s_80 s_80_aux) (= s_81 s_81_aux) (= s_77 s_77_aux) (= s_100 s_100_aux) (= s_96 s_96_aux) (= s_84 s_84_aux) (= s_91 s_91_aux) (= s_72 s_72_aux) (= s_97 s_97_aux) (= s_87 s_87_aux) (= s_95 s_95_aux) (= s_83 s_83_aux) (= s_92 s_92_aux) (= s_88 s_88_aux) (= s_99 s_99_aux) (= s_94 s_94_aux) (= s_98 s_98_aux) (= s_74 s_74_aux) (= s_73 s_73_aux) (= s_89 s_89_aux) (= s_75 s_75_aux) (= s_101 s_101_aux) (= s_76 s_76_aux) (= s_82 s_82_aux) (= s_85 s_85_aux) (= s_102 s_102) ) (= s_90 s_90_aux)))
(assert (=> (and (= s_79 s_79_aux) (= s_70 s_70_aux) (= s_86 s_86_aux) (= s_71 s_71_aux) (= s_93 s_93_aux) (= s_78 s_78_aux) (= s_80 s_80_aux) (= s_81 s_81_aux) (= s_77 s_77_aux) (= s_100 s_100_aux) (= s_96 s_96_aux) (= s_84 s_84_aux) (= s_91 s_91_aux) (= s_72 s_72_aux) (= s_97 s_97_aux) (= s_87 s_87_aux) (= s_95 s_95_aux) (= s_83 s_83_aux) (= s_92 s_92_aux) (= s_88 s_88_aux) (= s_99 s_99_aux) (= s_94 s_94_aux) (= s_98 s_98_aux) (= s_74 s_74_aux) (= s_73 s_73_aux) (= s_89 s_89_aux) (= s_75 s_75_aux) (= s_76 s_76_aux) (= s_90 s_90_aux) (= s_82 s_82_aux) (= s_85 s_85_aux) (= s_102 s_102) ) (= s_101 s_101_aux)))
(assert (=> (and (= s_79 s_79_aux) (= s_86 s_86_aux) (= s_71 s_71_aux) (= s_93 s_93_aux) (= s_78 s_78_aux) (= s_80 s_80_aux) (= s_81 s_81_aux) (= s_77 s_77_aux) (= s_100 s_100_aux) (= s_96 s_96_aux) (= s_84 s_84_aux) (= s_91 s_91_aux) (= s_72 s_72_aux) (= s_97 s_97_aux) (= s_87 s_87_aux) (= s_95 s_95_aux) (= s_83 s_83_aux) (= s_92 s_92_aux) (= s_88 s_88_aux) (= s_99 s_99_aux) (= s_94 s_94_aux) (= s_98 s_98_aux) (= s_74 s_74_aux) (= s_73 s_73_aux) (= s_89 s_89_aux) (= s_75 s_75_aux) (= s_101 s_101_aux) (= s_76 s_76_aux) (= s_90 s_90_aux) (= s_82 s_82_aux) (= s_85 s_85_aux) (= s_102 s_102) ) (= s_70 s_70_aux)))
(assert (=> (and (= s_79 s_79_aux) (= s_70 s_70_aux) (= s_86 s_86_aux) (= s_71 s_71_aux) (= s_93 s_93_aux) (= s_78 s_78_aux) (= s_80 s_80_aux) (= s_81 s_81_aux) (= s_77 s_77_aux) (= s_100 s_100_aux) (= s_96 s_96_aux) (= s_84 s_84_aux) (= s_91 s_91_aux) (= s_72 s_72_aux) (= s_97 s_97_aux) (= s_87 s_87_aux) (= s_95 s_95_aux) (= s_83 s_83_aux) (= s_92 s_92_aux) (= s_88 s_88_aux) (= s_99 s_99_aux) (= s_94 s_94_aux) (= s_98 s_98_aux) (= s_73 s_73_aux) (= s_89 s_89_aux) (= s_75 s_75_aux) (= s_101 s_101_aux) (= s_76 s_76_aux) (= s_90 s_90_aux) (= s_82 s_82_aux) (= s_85 s_85_aux) (= s_102 s_102) ) (= s_74 s_74_aux)))
(assert (=> (and (= s_79 s_79_aux) (= s_70 s_70_aux) (= s_86 s_86_aux) (= s_71 s_71_aux) (= s_93 s_93_aux) (= s_78 s_78_aux) (= s_80 s_80_aux) (= s_81 s_81_aux) (= s_77 s_77_aux) (= s_100 s_100_aux) (= s_96 s_96_aux) (= s_84 s_84_aux) (= s_91 s_91_aux) (= s_72 s_72_aux) (= s_97 s_97_aux) (= s_87 s_87_aux) (= s_83 s_83_aux) (= s_92 s_92_aux) (= s_88 s_88_aux) (= s_99 s_99_aux) (= s_94 s_94_aux) (= s_98 s_98_aux) (= s_74 s_74_aux) (= s_73 s_73_aux) (= s_89 s_89_aux) (= s_75 s_75_aux) (= s_101 s_101_aux) (= s_76 s_76_aux) (= s_90 s_90_aux) (= s_82 s_82_aux) (= s_85 s_85_aux) (= s_102 s_102) ) (= s_95 s_95_aux)))
(assert (=> (and (= s_79 s_79_aux) (= s_70 s_70_aux) (= s_86 s_86_aux) (= s_71 s_71_aux) (= s_93 s_93_aux) (= s_78 s_78_aux) (= s_80 s_80_aux) (= s_81 s_81_aux) (= s_77 s_77_aux) (= s_100 s_100_aux) (= s_96 s_96_aux) (= s_84 s_84_aux) (= s_91 s_91_aux) (= s_72 s_72_aux) (= s_97 s_97_aux) (= s_87 s_87_aux) (= s_95 s_95_aux) (= s_83 s_83_aux) (= s_92 s_92_aux) (= s_99 s_99_aux) (= s_94 s_94_aux) (= s_98 s_98_aux) (= s_74 s_74_aux) (= s_73 s_73_aux) (= s_89 s_89_aux) (= s_75 s_75_aux) (= s_101 s_101_aux) (= s_76 s_76_aux) (= s_90 s_90_aux) (= s_82 s_82_aux) (= s_85 s_85_aux) (= s_102 s_102) ) (= s_88 s_88_aux)))
(assert (=> (and (= s_79 s_79_aux) (= s_70 s_70_aux) (= s_86 s_86_aux) (= s_71 s_71_aux) (= s_93 s_93_aux) (= s_78 s_78_aux) (= s_80 s_80_aux) (= s_81 s_81_aux) (= s_77 s_77_aux) (= s_100 s_100_aux) (= s_84 s_84_aux) (= s_91 s_91_aux) (= s_72 s_72_aux) (= s_97 s_97_aux) (= s_87 s_87_aux) (= s_95 s_95_aux) (= s_83 s_83_aux) (= s_92 s_92_aux) (= s_88 s_88_aux) (= s_99 s_99_aux) (= s_94 s_94_aux) (= s_98 s_98_aux) (= s_74 s_74_aux) (= s_73 s_73_aux) (= s_89 s_89_aux) (= s_75 s_75_aux) (= s_101 s_101_aux) (= s_76 s_76_aux) (= s_90 s_90_aux) (= s_82 s_82_aux) (= s_85 s_85_aux) (= s_102 s_102) ) (= s_96 s_96_aux)))
(assert (=> (and (= s_79 s_79_aux) (= s_70 s_70_aux) (= s_71 s_71_aux) (= s_93 s_93_aux) (= s_78 s_78_aux) (= s_80 s_80_aux) (= s_81 s_81_aux) (= s_77 s_77_aux) (= s_100 s_100_aux) (= s_96 s_96_aux) (= s_84 s_84_aux) (= s_91 s_91_aux) (= s_72 s_72_aux) (= s_97 s_97_aux) (= s_87 s_87_aux) (= s_95 s_95_aux) (= s_83 s_83_aux) (= s_92 s_92_aux) (= s_88 s_88_aux) (= s_99 s_99_aux) (= s_94 s_94_aux) (= s_98 s_98_aux) (= s_74 s_74_aux) (= s_73 s_73_aux) (= s_89 s_89_aux) (= s_75 s_75_aux) (= s_101 s_101_aux) (= s_76 s_76_aux) (= s_90 s_90_aux) (= s_82 s_82_aux) (= s_85 s_85_aux) (= s_102 s_102) ) (= s_86 s_86_aux)))
(assert (=> (and (= s_79 s_79_aux) (= s_70 s_70_aux) (= s_86 s_86_aux) (= s_71 s_71_aux) (= s_93 s_93_aux) (= s_80 s_80_aux) (= s_81 s_81_aux) (= s_77 s_77_aux) (= s_100 s_100_aux) (= s_96 s_96_aux) (= s_84 s_84_aux) (= s_91 s_91_aux) (= s_72 s_72_aux) (= s_97 s_97_aux) (= s_87 s_87_aux) (= s_95 s_95_aux) (= s_83 s_83_aux) (= s_92 s_92_aux) (= s_88 s_88_aux) (= s_99 s_99_aux) (= s_94 s_94_aux) (= s_98 s_98_aux) (= s_74 s_74_aux) (= s_73 s_73_aux) (= s_89 s_89_aux) (= s_75 s_75_aux) (= s_101 s_101_aux) (= s_76 s_76_aux) (= s_90 s_90_aux) (= s_82 s_82_aux) (= s_85 s_85_aux) (= s_102 s_102) ) (= s_78 s_78_aux)))
(assert (not (and  (= s_70 s_70_aux)  (= s_71 s_71_aux)  (= s_72 s_72_aux)  (= s_73 s_73_aux)  (= s_74 s_74_aux)  (= s_75 s_75_aux)  (= s_76 s_76_aux)  (= s_77 s_77_aux)  (= s_78 s_78_aux)  (= s_79 s_79_aux)  (= s_80 s_80_aux)  (= s_81 s_81_aux)  (= s_82 s_82_aux)  (= s_83 s_83_aux)  (= s_84 s_84_aux)  (= s_85 s_85_aux)  (= s_86 s_86_aux)  (= s_87 s_87_aux)  (= s_88 s_88_aux)  (= s_89 s_89_aux)  (= s_90 s_90_aux)  (= s_91 s_91_aux)  (= s_92 s_92_aux)  (= s_93 s_93_aux)  (= s_94 s_94_aux)  (= s_95 s_95_aux)  (= s_96 s_96_aux)  (= s_97 s_97_aux)  (= s_98 s_98_aux)  (= s_99 s_99_aux)  (= s_100 s_100_aux)  (= s_101 s_101_aux) )))
(check-sat)
